(set-info :category "industrial")
(set-info :status sat)
(declare-fun x1 () (_ BitVec 32))
(declare-fun x2 () (_ BitVec 32))
(declare-fun x3 () (_ BitVec 32))
(declare-fun x4 () (_ BitVec 32))
(declare-fun x5 () (_ BitVec 32))
(declare-fun x6 () (_ BitVec 32))
(declare-fun x7 () (_ BitVec 32))
(declare-fun x8 () (_ BitVec 32))
(declare-fun x9 () (_ BitVec 32))
(declare-fun x10 () (_ BitVec 32))
(declare-fun x11 () (_ BitVec 32))
(declare-fun x12 () (_ BitVec 32))
(declare-fun x13 () (_ BitVec 32))
(declare-fun x14 () (_ BitVec 32))
(declare-fun x15 () (_ BitVec 32))
(declare-fun x16 () (_ BitVec 32))
(declare-fun x17 () (_ BitVec 32))
(declare-fun x18 () (_ BitVec 32))
(declare-fun x19 () (_ BitVec 32))
(declare-fun x20 () (_ BitVec 32))
(declare-fun x21 () (_ BitVec 32))
(declare-fun x22 () (_ BitVec 32))
(declare-fun x23 () (_ BitVec 32))
(declare-fun x24 () (_ BitVec 32))
(declare-fun x25 () (_ BitVec 32))
(declare-fun x26 () (_ BitVec 32))
(declare-fun x27 () (_ BitVec 32))
(declare-fun x28 () (_ BitVec 32))
(declare-fun x29 () (_ BitVec 32))
(declare-fun x30 () (_ BitVec 32))
(declare-fun x31 () (_ BitVec 32))
(declare-fun x32 () (_ BitVec 32))
(declare-fun x33 () (_ BitVec 32))
(declare-fun x34 () (_ BitVec 32))
(declare-fun x35 () (_ BitVec 32))
(declare-fun x36 () (_ BitVec 32))
(declare-fun x37 () (_ BitVec 32))
(declare-fun x38 () (_ BitVec 32))
(declare-fun x39 () (_ BitVec 32))
(declare-fun x40 () (_ BitVec 32))
(declare-fun x41 () (_ BitVec 32))
(declare-fun x42 () (_ BitVec 32))
(declare-fun x43 () (_ BitVec 32))
(declare-fun x44 () (_ BitVec 32))
(declare-fun x45 () (_ BitVec 32))
(declare-fun x46 () (_ BitVec 32))
(declare-fun x47 () (_ BitVec 32))
(assert (bvult x1 (_ bv6 32)))
(assert (bvult x2 (_ bv6 32)))
(assert (bvult x3 (_ bv6 32)))
(assert (bvult x4 (_ bv6 32)))
(assert (bvult x5 (_ bv6 32)))
(assert (bvult x6 (_ bv6 32)))
(assert (bvult x7 (_ bv6 32)))
(assert (bvult x8 (_ bv6 32)))
(assert (bvult x9 (_ bv6 32)))
(assert (bvult x10 (_ bv6 32)))
(assert (bvult x11 (_ bv6 32)))
(assert (bvult x12 (_ bv6 32)))
(assert (bvult x13 (_ bv6 32)))
(assert (bvult x14 (_ bv6 32)))
(assert (bvult x15 (_ bv6 32)))
(assert (bvult x16 (_ bv6 32)))
(assert (bvult x17 (_ bv6 32)))
(assert (bvult x18 (_ bv6 32)))
(assert (bvult x19 (_ bv6 32)))
(assert (bvult x20 (_ bv6 32)))
(assert (bvult x21 (_ bv6 32)))
(assert (bvult x22 (_ bv6 32)))
(assert (bvult x23 (_ bv6 32)))
(assert (bvult x24 (_ bv6 32)))
(assert (bvult x25 (_ bv6 32)))
(assert (bvult x26 (_ bv6 32)))
(assert (bvult x27 (_ bv6 32)))
(assert (bvult x28 (_ bv6 32)))
(assert (bvult x29 (_ bv6 32)))
(assert (bvult x30 (_ bv6 32)))
(assert (bvult x31 (_ bv6 32)))
(assert (bvult x32 (_ bv6 32)))
(assert (bvult x33 (_ bv6 32)))
(assert (bvult x34 (_ bv6 32)))
(assert (bvult x35 (_ bv6 32)))
(assert (bvult x36 (_ bv6 32)))
(assert (bvult x37 (_ bv6 32)))
(assert (bvult x38 (_ bv6 32)))
(assert (bvult x39 (_ bv6 32)))
(assert (bvult x40 (_ bv6 32)))
(assert (bvult x41 (_ bv6 32)))
(assert (bvult x42 (_ bv6 32)))
(assert (bvult x43 (_ bv6 32)))
(assert (bvult x44 (_ bv6 32)))
(assert (bvult x45 (_ bv6 32)))
(assert (bvult x46 (_ bv6 32)))
(assert (bvult x47 (_ bv6 32)))
(assert (not (= x1 x2)))
(assert (not (= x1 x4)))
(assert (not (= x1 x7)))
(assert (not (= x1 x9)))
(assert (not (= x1 x13)))
(assert (not (= x1 x15)))
(assert (not (= x1 x18)))
(assert (not (= x1 x20)))
(assert (not (= x1 x25)))
(assert (not (= x1 x27)))
(assert (not (= x1 x30)))
(assert (not (= x1 x32)))
(assert (not (= x1 x36)))
(assert (not (= x1 x38)))
(assert (not (= x1 x41)))
(assert (not (= x1 x43)))
(assert (not (= x2 x3)))
(assert (not (= x2 x6)))
(assert (not (= x2 x8)))
(assert (not (= x2 x12)))
(assert (not (= x2 x14)))
(assert (not (= x2 x17)))
(assert (not (= x2 x19)))
(assert (not (= x2 x24)))
(assert (not (= x2 x26)))
(assert (not (= x2 x29)))
(assert (not (= x2 x31)))
(assert (not (= x2 x35)))
(assert (not (= x2 x37)))
(assert (not (= x2 x40)))
(assert (not (= x2 x42)))
(assert (not (= x3 x5)))
(assert (not (= x3 x7)))
(assert (not (= x3 x10)))
(assert (not (= x3 x13)))
(assert (not (= x3 x16)))
(assert (not (= x3 x18)))
(assert (not (= x3 x21)))
(assert (not (= x3 x25)))
(assert (not (= x3 x28)))
(assert (not (= x3 x30)))
(assert (not (= x3 x33)))
(assert (not (= x3 x36)))
(assert (not (= x3 x39)))
(assert (not (= x3 x41)))
(assert (not (= x3 x44)))
(assert (not (= x4 x5)))
(assert (not (= x4 x6)))
(assert (not (= x4 x10)))
(assert (not (= x4 x12)))
(assert (not (= x4 x16)))
(assert (not (= x4 x17)))
(assert (not (= x4 x21)))
(assert (not (= x4 x24)))
(assert (not (= x4 x28)))
(assert (not (= x4 x29)))
(assert (not (= x4 x33)))
(assert (not (= x4 x35)))
(assert (not (= x4 x39)))
(assert (not (= x4 x40)))
(assert (not (= x4 x44)))
(assert (not (= x5 x8)))
(assert (not (= x5 x9)))
(assert (not (= x5 x14)))
(assert (not (= x5 x15)))
(assert (not (= x5 x19)))
(assert (not (= x5 x20)))
(assert (not (= x5 x26)))
(assert (not (= x5 x27)))
(assert (not (= x5 x31)))
(assert (not (= x5 x32)))
(assert (not (= x5 x37)))
(assert (not (= x5 x38)))
(assert (not (= x5 x42)))
(assert (not (= x5 x43)))
(assert (not (= x6 x11)))
(assert (not (= x6 x13)))
(assert (not (= x6 x15)))
(assert (not (= x6 x22)))
(assert (not (= x6 x25)))
(assert (not (= x6 x27)))
(assert (not (= x6 x34)))
(assert (not (= x6 x36)))
(assert (not (= x6 x38)))
(assert (not (= x6 x45)))
(assert (not (= x7 x11)))
(assert (not (= x7 x12)))
(assert (not (= x7 x14)))
(assert (not (= x7 x22)))
(assert (not (= x7 x24)))
(assert (not (= x7 x26)))
(assert (not (= x7 x34)))
(assert (not (= x7 x35)))
(assert (not (= x7 x37)))
(assert (not (= x7 x45)))
(assert (not (= x8 x11)))
(assert (not (= x8 x13)))
(assert (not (= x8 x16)))
(assert (not (= x8 x22)))
(assert (not (= x8 x25)))
(assert (not (= x8 x28)))
(assert (not (= x8 x34)))
(assert (not (= x8 x36)))
(assert (not (= x8 x39)))
(assert (not (= x8 x45)))
(assert (not (= x9 x11)))
(assert (not (= x9 x12)))
(assert (not (= x9 x16)))
(assert (not (= x9 x22)))
(assert (not (= x9 x24)))
(assert (not (= x9 x28)))
(assert (not (= x9 x34)))
(assert (not (= x9 x35)))
(assert (not (= x9 x39)))
(assert (not (= x9 x45)))
(assert (not (= x10 x11)))
(assert (not (= x10 x14)))
(assert (not (= x10 x15)))
(assert (not (= x10 x22)))
(assert (not (= x10 x26)))
(assert (not (= x10 x27)))
(assert (not (= x10 x34)))
(assert (not (= x10 x37)))
(assert (not (= x10 x38)))
(assert (not (= x10 x45)))
(assert (not (= x11 x17)))
(assert (not (= x11 x18)))
(assert (not (= x11 x19)))
(assert (not (= x11 x20)))
(assert (not (= x11 x21)))
(assert (not (= x11 x29)))
(assert (not (= x11 x30)))
(assert (not (= x11 x31)))
(assert (not (= x11 x32)))
(assert (not (= x11 x33)))
(assert (not (= x11 x40)))
(assert (not (= x11 x41)))
(assert (not (= x11 x42)))
(assert (not (= x11 x43)))
(assert (not (= x11 x44)))
(assert (not (= x12 x23)))
(assert (not (= x12 x25)))
(assert (not (= x12 x27)))
(assert (not (= x12 x30)))
(assert (not (= x12 x32)))
(assert (not (= x12 x46)))
(assert (not (= x13 x23)))
(assert (not (= x13 x24)))
(assert (not (= x13 x26)))
(assert (not (= x13 x29)))
(assert (not (= x13 x31)))
(assert (not (= x13 x46)))
(assert (not (= x14 x23)))
(assert (not (= x14 x25)))
(assert (not (= x14 x28)))
(assert (not (= x14 x30)))
(assert (not (= x14 x33)))
(assert (not (= x14 x46)))
(assert (not (= x15 x23)))
(assert (not (= x15 x24)))
(assert (not (= x15 x28)))
(assert (not (= x15 x29)))
(assert (not (= x15 x33)))
(assert (not (= x15 x46)))
(assert (not (= x16 x23)))
(assert (not (= x16 x26)))
(assert (not (= x16 x27)))
(assert (not (= x16 x31)))
(assert (not (= x16 x32)))
(assert (not (= x16 x46)))
(assert (not (= x17 x23)))
(assert (not (= x17 x25)))
(assert (not (= x17 x27)))
(assert (not (= x17 x34)))
(assert (not (= x17 x46)))
(assert (not (= x18 x23)))
(assert (not (= x18 x24)))
(assert (not (= x18 x26)))
(assert (not (= x18 x34)))
(assert (not (= x18 x46)))
(assert (not (= x19 x23)))
(assert (not (= x19 x25)))
(assert (not (= x19 x28)))
(assert (not (= x19 x34)))
(assert (not (= x19 x46)))
(assert (not (= x20 x23)))
(assert (not (= x20 x24)))
(assert (not (= x20 x28)))
(assert (not (= x20 x34)))
(assert (not (= x20 x46)))
(assert (not (= x21 x23)))
(assert (not (= x21 x26)))
(assert (not (= x21 x27)))
(assert (not (= x21 x34)))
(assert (not (= x21 x46)))
(assert (not (= x22 x23)))
(assert (not (= x22 x29)))
(assert (not (= x22 x30)))
(assert (not (= x22 x31)))
(assert (not (= x22 x32)))
(assert (not (= x22 x33)))
(assert (not (= x22 x46)))
(assert (not (= x23 x35)))
(assert (not (= x23 x36)))
(assert (not (= x23 x37)))
(assert (not (= x23 x38)))
(assert (not (= x23 x39)))
(assert (not (= x23 x40)))
(assert (not (= x23 x41)))
(assert (not (= x23 x42)))
(assert (not (= x23 x43)))
(assert (not (= x23 x44)))
(assert (not (= x23 x45)))
(assert (not (= x24 x47)))
(assert (not (= x25 x47)))
(assert (not (= x26 x47)))
(assert (not (= x27 x47)))
(assert (not (= x28 x47)))
(assert (not (= x29 x47)))
(assert (not (= x30 x47)))
(assert (not (= x31 x47)))
(assert (not (= x32 x47)))
(assert (not (= x33 x47)))
(assert (not (= x34 x47)))
(assert (not (= x35 x47)))
(assert (not (= x36 x47)))
(assert (not (= x37 x47)))
(assert (not (= x38 x47)))
(assert (not (= x39 x47)))
(assert (not (= x40 x47)))
(assert (not (= x41 x47)))
(assert (not (= x42 x47)))
(assert (not (= x43 x47)))
(assert (not (= x44 x47)))
(assert (not (= x45 x47)))
(assert (not (= x46 x47)))
(check-sat)
(exit)
